32	0

0	1	2
2	2	3	4
8	1	5
3	1	5
10	1	6
2	1	7
7	1	8
3	1	9
10	1	10
8	1	11
1	1	12
7	2	13	14
5	1	15
2	1	15
6	1	16
3	1	17
1	2	18	19
8	1	20
5	1	20
6	1	21
4	1	22
4	1	23
2	1	24
9	1	25
6	1	26
1	1	27
8	1	28
8	1	29
5	1	30
1	1	31
6	1	32
0	0
